X = 12;
Y = 12;
N = 11;

end_points_start_x = [3, 5, 6, 7, 2, 3, 1, 6, 7, 11, 6];
end_points_start_y = [10, 9, 7, 10, 2, 2, 5, 12, 12, 8, 2];
end_points_end_x = [7, 10, 11, 11, 7, 4, 4, 10, 9, 11, 11];
end_points_end_y = [4, 3, 5, 1, 9, 6, 5, 8, 10, 11, 2];
